objective value:                                   -7
t_n_12                                              1 	(obj:-1)
t_n_244                                             1 	(obj:-1)
t_n_365                                             1 	(obj:-1)
t_n_697                                             1 	(obj:-1)
t_n_809                                             1 	(obj:-1)
t_n_859                                             1 	(obj:-1)
t_n_987                                             1 	(obj:-1)
